NAME 
ROWS
 N  OBJ
 L  R0      
 L  R1      
 L  R2      
 E  R3      
 E  R4      
 E  R5      
 E  R6      
 E  R7      
 E  R8      
 E  R9      
 E  R10     
 E  R11     
 E  R12     
 E  R13     
 E  R14     
 E  R15     
 E  R16     
 E  R17     
 E  R18     
 E  R19     
 E  R20     
 E  R21     
 E  R22     
 E  R23     
 E  R24     
 E  R25     
 E  R26     
 E  R27     
COLUMNS
    MARKER    'MARKER'                 'INTORG'
    I0(9)     OBJ       128
    I0(9)     R0        -8
    I0(9)     R1        -176
    I0(9)     R2        139
    I0(9)     R4        3
    I0(9)     R6        8
    I0(9)     R9        13
    I0(9)     R10       18
    I0(9)     R14       1
    I0(9)     R27       1
    I1(9)     OBJ       6
    I1(9)     R0        64
    I1(9)     R1        80
    I1(9)     R2        152
    I1(9)     R3        19
    I1(9)     R4        10
    I1(9)     R8        13
    I1(9)     R10       18
    I1(9)     R14       15
    I1(9)     R27       1
    I2(12)    OBJ       -146
    I2(12)    R0        -137
    I2(12)    R1        -156
    I2(12)    R2        -185
    I2(12)    R3        10
    I2(12)    R4        7
    I2(12)    R6        1
    I2(12)    R7        19
    I2(12)    R9        7
    I2(12)    R11       12
    I2(12)    R13       6
    I2(12)    R14       6
    I2(12)    R27       1
    I3(10)    OBJ       -77
    I3(10)    R0        91
    I3(10)    R1        -109
    I3(10)    R2        6
    I3(10)    R4        6
    I3(10)    R5        16
    I3(10)    R7        9
    I3(10)    R8        15
    I3(10)    R10       -1
    I3(10)    R11       10
    I3(10)    R27       1
    I4(9)     OBJ       84
    I4(9)     R0        186
    I4(9)     R1        130
    I4(9)     R2        -33
    I4(9)     R3        7
    I4(9)     R5        -1
    I4(9)     R6        7
    I4(9)     R7        6
    I4(9)     R11       9
    I4(9)     R27       1
    I5(11)    OBJ       -22
    I5(11)    R0        -148
    I5(11)    R1        -109
    I5(11)    R2        -145
    I5(11)    R4        9
    I5(11)    R6        1
    I5(11)    R9        4
    I5(11)    R11       8
    I5(11)    R12       10
    I5(11)    R13       5
    I5(11)    R14       18
    I5(11)    R27       1
    I6(11)    OBJ       -17
    I6(11)    R0        14
    I6(11)    R1        8
    I6(11)    R2        -178
    I6(11)    R5        8
    I6(11)    R6        3
    I6(11)    R7        10
    I6(11)    R9        6
    I6(11)    R10       17
    I6(11)    R12       -1
    I6(11)    R13       2
    I6(11)    R27       1
    I7(8)     OBJ       -186
    I7(8)     R0        47
    I7(8)     R1        -191
    I7(8)     R2        135
    I7(8)     R3        14
    I7(8)     R5        7
    I7(8)     R7        19
    I7(8)     R13       1
    I7(8)     R27       1
    I8(12)    OBJ       -185
    I8(12)    R0        137
    I8(12)    R1        61
    I8(12)    R2        149
    I8(12)    R3        10
    I8(12)    R4        5
    I8(12)    R5        -1
    I8(12)    R7        9
    I8(12)    R10       16
    I8(12)    R11       16
    I8(12)    R12       9
    I8(12)    R13       12
    I8(12)    R27       1
    I9(13)    OBJ       -109
    I9(13)    R0        158
    I9(13)    R1        188
    I9(13)    R2        -26
    I9(13)    R3        15
    I9(13)    R4        16
    I9(13)    R5        16
    I9(13)    R6        10
    I9(13)    R7        16
    I9(13)    R9        19
    I9(13)    R10       15
    I9(13)    R12       2
    I9(13)    R14       9
    I9(13)    R27       1
    I10(9)    OBJ       -6
    I10(9)    R0        173
    I10(9)    R1        -41
    I10(9)    R2        99
    I10(9)    R5        7
    I10(9)    R7        13
    I10(9)    R8        8
    I10(9)    R12       2
    I10(9)    R13       5
    I10(9)    R27       1
    I11(11)   OBJ       -157
    I11(11)   R0        7
    I11(11)   R1        -109
    I11(11)   R2        -131
    I11(11)   R3        6
    I11(11)   R4        9
    I11(11)   R5        1
    I11(11)   R6        17
    I11(11)   R7        10
    I11(11)   R11       10
    I11(11)   R14       2
    I11(11)   R27       1
    MARKER    'MARKER'                 'INTEND'
    C12(20)   OBJ       -9
    C12(20)   R0        9
    C12(20)   R1        -8
    C12(20)   R2        -5
    C12(20)   R4        18
    C12(20)   R5        14
    C12(20)   R7        3
    C12(20)   R9        -1
    C12(20)   R11       9
    C12(20)   R12       17
    C12(20)   R13       17
    C12(20)   R14       12
    C12(20)   R15       10
    C12(20)   R16       19
    C12(20)   R18       4
    C12(20)   R19       16
    C12(20)   R20       1
    C12(20)   R22       -1
    C12(20)   R23       16
    C12(20)   R24       1
    C12(20)   R25       10
    C13(16)   OBJ       4
    C13(16)   R0        -6
    C13(16)   R1        -9
    C13(16)   R2        -2
    C13(16)   R3        17
    C13(16)   R4        17
    C13(16)   R7        1
    C13(16)   R8        18
    C13(16)   R10       13
    C13(16)   R11       10
    C13(16)   R16       19
    C13(16)   R19       12
    C13(16)   R21       8
    C13(16)   R22       4
    C13(16)   R23       16
    C13(16)   R24       16
    C13(16)   R25       8
    C14(11)   OBJ       2
    C14(11)   R0        3
    C14(11)   R1        -4
    C14(11)   R2        2
    C14(11)   R7        5
    C14(11)   R11       17
    C14(11)   R14       11
    C14(11)   R17       1
    C14(11)   R18       5
    C14(11)   R20       -1
    C14(11)   R21       15
    C14(11)   R25       13
    C15(18)   OBJ       -3
    C15(18)   R0        -6
    C15(18)   R1        -5
    C15(18)   R3        7
    C15(18)   R4        3
    C15(18)   R6        6
    C15(18)   R8        16
    C15(18)   R10       8
    C15(18)   R11       9
    C15(18)   R12       19
    C15(18)   R15       4
    C15(18)   R17       2
    C15(18)   R18       1
    C15(18)   R20       15
    C15(18)   R21       17
    C15(18)   R22       1
    C15(18)   R24       4
    C15(18)   R25       7
    C15(18)   R26       14
    C16(11)   OBJ       3
    C16(11)   R0        4
    C16(11)   R1        1
    C16(11)   R2        2
    C16(11)   R6        17
    C16(11)   R8        14
    C16(11)   R9        12
    C16(11)   R10       3
    C16(11)   R19       1
    C16(11)   R20       13
    C16(11)   R23       18
    C16(11)   R25       16
    C17(16)   OBJ       -10
    C17(16)   R0        -5
    C17(16)   R1        -10
    C17(16)   R2        -2
    C17(16)   R4        7
    C17(16)   R5        5
    C17(16)   R11       17
    C17(16)   R15       16
    C17(16)   R16       14
    C17(16)   R17       15
    C17(16)   R18       10
    C17(16)   R19       6
    C17(16)   R20       15
    C17(16)   R21       12
    C17(16)   R22       17
    C17(16)   R25       3
    C17(16)   R26       18
    C18(20)   R0        -5
    C18(20)   R1        -2
    C18(20)   R2        5
    C18(20)   R4        12
    C18(20)   R5        10
    C18(20)   R6        14
    C18(20)   R7        1
    C18(20)   R9        10
    C18(20)   R10       15
    C18(20)   R13       15
    C18(20)   R14       10
    C18(20)   R15       -1
    C18(20)   R16       16
    C18(20)   R17       5
    C18(20)   R18       12
    C18(20)   R21       5
    C18(20)   R22       1
    C18(20)   R24       15
    C18(20)   R25       17
    C18(20)   R26       19
    C19(14)   OBJ       -9
    C19(14)   R0        -3
    C19(14)   R1        -3
    C19(14)   R4        5
    C19(14)   R5        12
    C19(14)   R6        12
    C19(14)   R7        10
    C19(14)   R9        3
    C19(14)   R11       12
    C19(14)   R12       19
    C19(14)   R13       1
    C19(14)   R15       4
    C19(14)   R19       8
    C19(14)   R20       14
    C19(14)   R24       5
    C20(14)   OBJ       -3
    C20(14)   R0        4
    C20(14)   R1        -3
    C20(14)   R2        2
    C20(14)   R3        13
    C20(14)   R4        14
    C20(14)   R5        17
    C20(14)   R7        10
    C20(14)   R8        5
    C20(14)   R9        16
    C20(14)   R14       9
    C20(14)   R17       12
    C20(14)   R19       3
    C20(14)   R22       12
    C20(14)   R25       16
    C21(13)   OBJ       -1
    C21(13)   R0        -2
    C21(13)   R1        -3
    C21(13)   R2        -5
    C21(13)   R5        19
    C21(13)   R6        3
    C21(13)   R8        19
    C21(13)   R9        19
    C21(13)   R10       2
    C21(13)   R11       11
    C21(13)   R13       9
    C21(13)   R15       9
    C21(13)   R23       7
    C21(13)   R25       3
    C22(14)   OBJ       -6
    C22(14)   R0        -4
    C22(14)   R1        4
    C22(14)   R2        -2
    C22(14)   R4        18
    C22(14)   R11       7
    C22(14)   R12       -1
    C22(14)   R13       5
    C22(14)   R14       1
    C22(14)   R15       1
    C22(14)   R19       6
    C22(14)   R22       3
    C22(14)   R23       7
    C22(14)   R24       2
    C22(14)   R26       10
    C23(16)   OBJ       6
    C23(16)   R0        3
    C23(16)   R1        6
    C23(16)   R5        12
    C23(16)   R7        19
    C23(16)   R8        15
    C23(16)   R10       12
    C23(16)   R14       6
    C23(16)   R17       15
    C23(16)   R18       6
    C23(16)   R19       14
    C23(16)   R20       7
    C23(16)   R21       18
    C23(16)   R22       13
    C23(16)   R24       -1
    C23(16)   R25       11
    C23(16)   R26       19
    C24(15)   OBJ       4
    C24(15)   R0        5
    C24(15)   R1        -10
    C24(15)   R2        -6
    C24(15)   R3        19
    C24(15)   R7        2
    C24(15)   R9        14
    C24(15)   R10       18
    C24(15)   R14       14
    C24(15)   R15       4
    C24(15)   R17       7
    C24(15)   R18       15
    C24(15)   R19       19
    C24(15)   R20       1
    C24(15)   R22       15
    C24(15)   R25       10
    C25(1)    R3        1
    C26(1)    R4        1
    C27(1)    R5        1
    C28(1)    R6        1
    C29(1)    R7        1
    C30(1)    R8        1
    C31(1)    R9        1
    C32(1)    R10       1
    C33(1)    R11       1
    C34(1)    R12       1
    C35(1)    R13       1
    C36(1)    R14       1
    C37(1)    R15       1
    C38(1)    R16       1
    C39(1)    R17       1
    C40(1)    R18       1
    C41(1)    R19       1
    C42(1)    R20       1
    C43(1)    R21       1
    C44(1)    R22       1
    C45(1)    R23       1
    C46(1)    R24       1
    C47(1)    R25       1
    C48(1)    R26       1
    C49(1)    R27       1
RHS
    RHS1      R0        3.3711284046692612e+02
    RHS1      R1        -6.6987029831387687e+01
    RHS1      R2        1.1567444876783395e+02
    RHS1      R3        69
    RHS1      R4        93
    RHS1      R5        79
    RHS1      R6        67
    RHS1      R7        56
    RHS1      R8        81
    RHS1      R9        65
    RHS1      R10       97
    RHS1      R11       79
    RHS1      R12       90
    RHS1      R13       86
    RHS1      R14       76
    RHS1      R15       66
    RHS1      R16       57
    RHS1      R17       61
    RHS1      R18       84
    RHS1      R19       95
    RHS1      R20       82
    RHS1      R21       80
    RHS1      R22       53
    RHS1      R23       76
    RHS1      R24       54
    RHS1      R25       87
    RHS1      R26       64
    RHS1      R27       4
BOUNDS
 UP BND1      I0(9)     1
 UP BND1      I1(9)     1
 UP BND1      I2(12)    1
 UP BND1      I3(10)    1
 UP BND1      I4(9)     1
 UP BND1      I5(11)    1
 UP BND1      I6(11)    1
 UP BND1      I7(8)     1
 UP BND1      I8(12)    1
 UP BND1      I9(13)    1
 UP BND1      I10(9)    1
 UP BND1      I11(11)   1
ENDATA
